num_teams = 10;
cost = [|0,45,41,17,12,26,11,14,15,20,
|28,0,43,23,4,20,7,23,38,31,
|14,26,0,25,5,44,19,28,5,20,
|25,13,8,0,12,47,13,49,30,24,
|5,41,1,2,0,36,23,1,24,18,
|41,30,3,21,33,0,47,10,1,7,
|31,9,6,23,14,43,0,44,48,45,
|21,12,6,8,23,49,27,0,49,6,
|8,5,38,36,13,28,48,18,0,5,
|34,12,35,17,25,40,27,11,49,0,
|];